% Generated by analyze_corpus.py; do not edit manually.
% Source-file checksums compared against integrity_manifest.csv.
threshold(singleton_high,1000).
threshold(singleton_medium,100).
threshold(below_k5_high,2500).
threshold(homogeneous_high,2500).
dataset(d1).
rows(d1,4683).
columns(d1,35).
singleton_bp(d1,9206).
below_k5_bp(d1,9985).
homogeneous_bp(d1,34).
sensitive(d1).
dataset(d2).
rows(d2,513).
columns(d2,38).
singleton_bp(d2,4717).
below_k5_bp(d2,7622).
homogeneous_bp(d2,2320).
sensitive(d2).
structural_identifier(d2).
free_text(d2).
dataset(d3).
rows(d3,348).
columns(d3,67).
singleton_bp(d3,3649).
below_k5_bp(d3,7040).
homogeneous_bp(d3,1580).
sensitive(d3).
structural_identifier(d3).
dataset(d4).
rows(d4,1191).
columns(d4,35).
singleton_bp(d4,8170).
below_k5_bp(d4,9857).
homogeneous_bp(d4,1066).
sensitive(d4).
structural_identifier(d4).
dataset(d5).
rows(d5,901).
columns(d5,43).
singleton_bp(d5,133).
below_k5_bp(d5,555).
homogeneous_bp(d5,22).
sensitive(d5).
